# Solution for model qis_1000_800_691
# Objective value = 300.437628683582
x[0] 0
x[1] 0
x[2] 1
x[3] 0
x[4] 0
x[5] 0
x[6] 1
x[7] 1
x[8] 0
x[9] 0
x[10] 0
x[11] 0
x[12] 1
x[13] 1.2030211755933470e-07
x[14] 0
x[15] 0
x[16] 1
x[17] 1
x[18] 0
x[19] 1
x[20] 0
x[21] 0
x[22] 0
x[23] 0
x[24] 1.2119267447829484e-07
x[25] 1
x[26] 1
x[27] 0
x[28] 1
x[29] 0
x[30] 1
x[31] 1
x[32] 0
x[33] 1
x[34] 0
x[35] 0
x[36] 0
x[37] 1
x[38] 1
x[39] 1
x[40] 1
x[41] 0
x[42] 0
x[43] 4.4423487339456838e-07
x[44] 1
x[45] 0
x[46] 1
x[47] 1
x[48] 0
x[49] 1
x[50] 1
x[51] 1
x[52] 0
x[53] 0
x[54] 0
x[55] 0
x[56] 0
x[57] 1
x[58] 0
x[59] 1
x[60] 1
x[61] 1
x[62] 0
x[63] 1
x[64] 1
x[65] 1
x[66] 0
x[67] 0
x[68] 0
x[69] 1
x[70] 1
x[71] 1
x[72] 0
x[73] 0
x[74] 1
x[75] 0
x[76] 0
x[77] 0
x[78] 0
x[79] 0
x[80] 0
x[81] 0
x[82] 1
x[83] 0
x[84] 1
x[85] 0
x[86] 0
x[87] 0
x[88] 0
x[89] 1
x[90] 1
x[91] 1
x[92] 1
x[93] 1
x[94] 0
x[95] 1
x[96] 0
x[97] 1
x[98] 0
x[99] 1
x[100] 0
x[101] 0
x[102] 0
x[103] 0
x[104] 1
x[105] 1
x[106] 0
x[107] 1
x[108] 1
x[109] 1
x[110] 1
x[111] 1
x[112] 0
x[113] 0
x[114] 0
x[115] 0
x[116] 0
x[117] 0
x[118] 1
x[119] 1
x[120] 1
x[121] 0
x[122] 1
x[123] 0
x[124] 1
x[125] 1
x[126] 1
x[127] 0
x[128] 0
x[129] 0
x[130] 1.2146951453389445e-07
x[131] 1
x[132] 1
x[133] 1
x[134] 1
x[135] 1
x[136] 1
x[137] 1
x[138] 1
x[139] 1
x[140] 0
x[141] 0
x[142] 0
x[143] 1
x[144] 1
x[145] 0
x[146] 0
x[147] 0
x[148] 1
x[149] 1
x[150] 0
x[151] 0
x[152] 1
x[153] 0
x[154] 0
x[155] 0
x[156] 0
x[157] 1
x[158] 0
x[159] 1
x[160] 0
x[161] 1
x[162] 0
x[163] 0
x[164] 0
x[165] 1
x[166] 0
x[167] 1
x[168] 1
x[169] 1
x[170] 0
x[171] 1
x[172] 0
x[173] 0
x[174] 0
x[175] 0
x[176] 1
x[177] 0
x[178] 1
x[179] 1
x[180] 0
x[181] 1
x[182] 1
x[183] 1
x[184] 1
x[185] 1
x[186] 1
x[187] 1
x[188] 0
x[189] 0
x[190] 9.9999988170550191e-01
x[191] 1
x[192] 0
x[193] 1
x[194] 0
x[195] 0
x[196] 1
x[197] 1
x[198] 0
x[199] 0
x[200] 0
x[201] 1
x[202] 1
x[203] 0
x[204] 1
x[205] 0
x[206] 0
x[207] 1
x[208] 0
x[209] 1
x[210] 0
x[211] 1
x[212] 0
x[213] 9.9999988666666484e-01
x[214] 1
x[215] 0
x[216] 9.9999977777777438e-01
x[217] 1
x[218] 0
x[219] 0
x[220] 0
x[221] 0
x[222] 1
x[223] 0
x[224] 1
x[225] 0
x[226] 0
x[227] 0
x[228] 1
x[229] 0
x[230] 1
x[231] 1
x[232] 0
x[233] 0
x[234] 9.9999988186381883e-01
x[235] 0
x[236] 0
x[237] 1
x[238] 0
x[239] 1
x[240] 1
x[241] 0
x[242] 0
x[243] 0
x[244] 0
x[245] 1
x[246] 0
x[247] 1
x[248] 1
x[249] 0
x[250] 1
x[251] 9.9999977777777416e-01
x[252] 1
x[253] 1
x[254] 0
x[255] 0
x[256] 1
x[257] 0
x[258] 0
x[259] 1
x[260] 0
x[261] 0
x[262] 1
x[263] 2.2198620219230293e-07
x[264] 1
x[265] 1
x[266] 0
x[267] 1
x[268] 1.0000001109310324e+00
x[269] 1
x[270] 0
x[271] 1
x[272] 1
x[273] 0
x[274] 1
x[275] 0
x[276] 1
x[277] 0
x[278] 0
x[279] 1
x[280] 1
x[281] 0
x[282] 1
x[283] 0
x[284] 1
x[285] 0
x[286] 0
x[287] 1
x[288] 0
x[289] 0
x[290] 1
x[291] 1
x[292] 0
x[293] 1
x[294] 0
x[295] 0
x[296] 0
x[297] 1
x[298] 0
x[299] 0
x[300] 0
x[301] 0
x[302] 1.2144250808530238e-07
x[303] 1
x[304] 0
x[305] 1
x[306] 0
x[307] 0
x[308] 0
x[309] 1
x[310] 0
x[311] 0
x[312] 1
x[313] 0
x[314] 1
x[315] 0
x[316] 0
x[317] 1
x[318] 0
x[319] 0
x[320] 1
x[321] 0
x[322] 1
x[323] 1
x[324] 0
x[325] 1
x[326] 0
x[327] 4.4263869098458491e-07
x[328] 1
x[329] 1
x[330] 0
x[331] 1
x[332] 1
x[333] 0
x[334] 0
x[335] 1
x[336] 0
x[337] 0
x[338] 1
x[339] 1
x[340] 0
x[341] 1
x[342] 1
x[343] 0
x[344] 9.9999933666665664e-01
x[345] 1
x[346] 0
x[347] 1
x[348] 1
x[349] 0
x[350] 1
x[351] 0
x[352] 0
x[353] 9.9999988186381883e-01
x[354] 0
x[355] 1
x[356] 1
x[357] 0
x[358] 1
x[359] 1
x[360] 0
x[361] 0
x[362] 1
x[363] 1
x[364] 0
x[365] 0
x[366] 0
x[367] 1
x[368] 1
x[369] 0
x[370] 0
x[371] 1
x[372] 0
x[373] 1
x[374] 0
x[375] 1
x[376] 0
x[377] 1
x[378] 1
x[379] 0
x[380] 1
x[381] 0
x[382] 0
x[383] 0
x[384] 1
x[385] 0
x[386] 0
x[387] 1
x[388] 0
x[389] 0
x[390] 1
x[391] 1
x[392] 1
x[393] 0
x[394] 0
x[395] 1
x[396] 1
x[397] 1
x[398] 1
x[399] 0
x[400] 1
x[401] 1
x[402] 1
x[403] 1
x[404] 1
x[405] 0
x[406] 0
x[407] 1
x[408] 0
x[409] 0
x[410] 1
x[411] 1
x[412] 1
x[413] 1
x[414] 1
x[415] 0
x[416] 9.9999955888888137e-01
x[417] 1
x[418] 0
x[419] 1
x[420] 1
x[421] 0
x[422] 1
x[423] 0
x[424] 0
x[425] 1
x[426] 1
x[427] 0
x[428] 0
x[429] 1
x[430] 1
x[431] 1
x[432] 1
x[433] 0
x[434] 0
x[435] 0
x[436] 1
x[437] 0
x[438] 0
x[439] 0
x[440] 1
x[441] 1
x[442] 0
x[443] 0
x[444] 1
x[445] 1
x[446] 1
x[447] 1
x[448] 6.66051488097454e-07
x[449] 1
x[450] 0
x[451] 0
x[452] 0
x[453] 1
x[454] 1
x[455] 1
x[456] 1
x[457] 1
x[458] 0
x[459] 0
x[460] 1
x[461] 1
x[462] 0
x[463] 0
x[464] 0
x[465] 0
x[466] 0
x[467] 1
x[468] 0
x[469] 0
x[470] 1
x[471] 0
x[472] 0
x[473] 1
x[474] 0
x[475] 1
x[476] 1
x[477] 1
x[478] 1
x[479] 1
x[480] 0
x[481] 1
x[482] 1
x[483] 1
x[484] 0
x[485] 0
x[486] 1
x[487] 0
x[488] 0
x[489] 0
x[490] 0
x[491] 0
x[492] 0
x[493] 1
x[494] 1
x[495] 1
x[496] 1
x[497] 1
x[498] 1
x[499] 1
x[500] 0
x[501] 0
x[502] 0
x[503] 1
x[504] 0
x[505] 1
x[506] 1
x[507] 1
x[508] 0
x[509] 0
x[510] 1
x[511] 0
x[512] 0
x[513] 1
x[514] 1
x[515] 0
x[516] 1
x[517] 0
x[518] 1
x[519] 1
x[520] 0
x[521] 0
x[522] 1
x[523] 0
x[524] 0
x[525] 1
x[526] 0
x[527] 0
x[528] 1
x[529] 0
x[530] 0
x[531] 0
x[532] 1
x[533] 1
x[534] 1
x[535] 0
x[536] 1
x[537] 0
x[538] 0
x[539] 0
x[540] 0
x[541] 0
x[542] 1
x[543] 1
x[544] 9.9999978277777413e-01
x[545] 1
x[546] 0
x[547] 0
x[548] 0
x[549] 1
x[550] 1
x[551] 0
x[552] 0
x[553] 0
x[554] 1
x[555] 0
x[556] 1
x[557] 0
x[558] 0
x[559] 1
x[560] 0
x[561] 0
x[562] 0
x[563] 0
x[564] 1
x[565] 0
x[566] 0
x[567] 0
x[568] 1
x[569] 1
x[570] 0
x[571] 1
x[572] 9.9999988170550191e-01
x[573] 0
x[574] 1
x[575] 0
x[576] 1
x[577] 0
x[578] 1
x[579] 1
x[580] 1
x[581] 0
x[582] 1
x[583] 0
x[584] 0
x[585] 1
x[586] 1
x[587] 9.9999988212216717e-01
x[588] 0
x[589] 1
x[590] 0
x[591] 9.9999982555555278e-01
x[592] 1
x[593] 0
x[594] 0
x[595] 1
x[596] 0
x[597] 1
x[598] 0
x[599] 0
x[600] 1
x[601] 0
x[602] 1
x[603] 1
x[604] 0
x[605] 1
x[606] 1
x[607] 1
x[608] 0
x[609] 1
x[610] 0
x[611] 0
x[612] 0
x[613] 1
x[614] 1
x[615] 1
x[616] 0
x[617] 0
x[618] 0
x[619] 0
x[620] 0
x[621] 0
x[622] 0
x[623] 0
x[624] 0
x[625] 0
x[626] 1
x[627] 0
x[628] 0
x[629] 0
x[630] 0
x[631] 0
x[632] 0
x[633] 1
x[634] 0
x[635] 1
x[636] 1
x[637] 1
x[638] 0
x[639] 1
x[640] 1
x[641] 1
x[642] 1
x[643] 1
x[644] 0
x[645] 0
x[646] 0
x[647] 0
x[648] 0
x[649] 0
x[650] 0
x[651] 1
x[652] 1
x[653] 1
x[654] 1
x[655] 1
x[656] 1
x[657] 1
x[658] 1
x[659] 1
x[660] 0
x[661] 1
x[662] 0
x[663] 1
x[664] 0
x[665] 0
x[666] 9.9999978111110743e-01
x[667] 1
x[668] 0
x[669] 0
x[670] 0
x[671] 1
x[672] 1
x[673] 9.9999988170550025e-01
x[674] 0
x[675] 1
x[676] 1
x[677] 0
x[678] 0
x[679] 0
x[680] 0
x[681] 1
x[682] 0
x[683] 0
x[684] 0
x[685] 1
x[686] 0
x[687] 1
x[688] 0
x[689] 0
x[690] 0
x[691] 0
x[692] 0
x[693] 1
x[694] 0
x[695] 0
x[696] 0
x[697] 1
x[698] 0
x[699] 0
x[700] 1
x[701] 1
x[702] 1
x[703] 1
x[704] 0
x[705] 1
x[706] 0
x[707] 1
x[708] 1
x[709] 1
x[710] 0
x[711] 1
x[712] 0
x[713] 0
x[714] 1
x[715] 1
x[716] 0
x[717] 0
x[718] 0
x[719] 0
x[720] 0
x[721] 1
x[722] 1
x[723] 2.2206211695972305e-07
x[724] 1
x[725] 1
x[726] 1
x[727] 1
x[728] 1
x[729] 0
x[730] 1
x[731] 0
x[732] 1
x[733] 1
x[734] 0
x[735] 0
x[736] 1
x[737] 1
x[738] 1
x[739] 1
x[740] 0
x[741] 1
x[742] 0
x[743] 1
x[744] 1
x[745] 1
x[746] 1
x[747] 1
x[748] 0
x[749] 0
x[750] 0
x[751] 0
x[752] 0
x[753] 0
x[754] 0
x[755] 0
x[756] 0
x[757] 0
x[758] 0
x[759] 1
x[760] 0
x[761] 1
x[762] 1
x[763] 6.9188686671467208e-08
x[764] 1
x[765] 0
x[766] 1.2107299623554912e-07
x[767] 1
x[768] 0
x[769] 0
x[770] 1
x[771] 0
x[772] 1
x[773] 1
x[774] 0
x[775] 1
x[776] 1
x[777] 1
x[778] 0
x[779] 2.2176350354979736e-07
x[780] 1
x[781] 0
x[782] 0
x[783] 1
x[784] 1
x[785] 1
x[786] 0
x[787] 1
x[788] 0
x[789] 0
x[790] 0
x[791] 0
x[792] 0
x[793] 1
x[794] 0
x[795] 1
x[796] 0
x[797] 9.9999999999999978e-01
x[798] 0
x[799] 0
x[800] 0
x[801] 1
x[802] 0
x[803] 0
x[804] 0
x[805] 0
x[806] 9.9999996279072245e-01
x[807] 1
x[808] 0
x[809] 1
x[810] 0
x[811] 0
x[812] 0
x[813] 1
x[814] 0
x[815] 1
x[816] 0
x[817] 1
x[818] 1
x[819] 1
x[820] 0
x[821] 0
x[822] 1
x[823] 1
x[824] 0
x[825] 1
x[826] 1
x[827] 0
x[828] 0
x[829] 1
x[830] 1
x[831] 1
x[832] 0
x[833] 1
x[834] 0
x[835] 0
x[836] 0
x[837] 1
x[838] 1
x[839] 1
x[840] 0
x[841] 0
x[842] 1
x[843] 0
x[844] 1
x[845] 0
x[846] 1
x[847] 0
x[848] 0
x[849] 1
x[850] 1
x[851] 1
x[852] 1
x[853] 1
x[854] 1
x[855] 1
x[856] 0
x[857] 9.9999977777777427e-01
x[858] 1
x[859] 9.9999999999999989e-01
x[860] 0
x[861] 0
x[862] 0
x[863] 1
x[864] 1
x[865] 0
x[866] 1
x[867] 0
x[868] 1
x[869] 0
x[870] 0
x[871] 0
x[872] 1
x[873] 0
x[874] 0
x[875] 1
x[876] 0
x[877] 1
x[878] 1
x[879] 2.2184430974546969e-07
x[880] 1
x[881] 0
x[882] 1
x[883] 1
x[884] 0
x[885] 1
x[886] 1
x[887] 1
x[888] 0
x[889] 0
x[890] 9.9999933666665675e-01
x[891] 0
x[892] 1
x[893] 1
x[894] 0
x[895] 0
x[896] 1
x[897] 1
x[898] 0
x[899] 1
x[900] 0
x[901] 1
x[902] 0
x[903] 1
x[904] 1
x[905] 0
x[906] 1
x[907] 0
x[908] 0
x[909] 0
x[910] 0
x[911] 1
x[912] 1
x[913] 0
x[914] 0
x[915] 1
x[916] 0
x[917] 0
x[918] 0
x[919] 4.4402808169754329e-07
x[920] 1
x[921] 0
x[922] 0
x[923] 1
x[924] 1
x[925] 0
x[926] 1
x[927] 0
x[928] 1
x[929] 1.2134144505177293e-07
x[930] 0
x[931] 1
x[932] 0
x[933] 1
x[934] 1
x[935] 0
x[936] 1
x[937] 0
x[938] 1
x[939] 0
x[940] 0
x[941] 1
x[942] 0
x[943] 1
x[944] 0
x[945] 1
x[946] 0
x[947] 0
x[948] 0
x[949] 1
x[950] 0
x[951] 0
x[952] 1
x[953] 1
x[954] 1
x[955] 0
x[956] 0
x[957] 1
x[958] 1
x[959] 0
x[960] 0
x[961] 0
x[962] 1
x[963] 0
x[964] 0
x[965] 0
x[966] 1
x[967] 0
x[968] 0
x[969] 1.2102145225858585e-07
x[970] 1
x[971] 1
x[972] 0
x[973] 0
x[974] 6.6498803953096547e-07
x[975] 0
x[976] 1
x[977] 1
x[978] 0
x[979] 0
x[980] 0
x[981] 1
x[982] 0
x[983] 0
x[984] 0
x[985] 0
x[986] 0
x[987] 1
x[988] 0
x[989] 0
x[990] 0
x[991] 0
x[992] 1
x[993] 0
x[994] 1
x[995] 0
x[996] 0
x[997] 1
x[998] 1
x[999] 0
